\ENCODING=ISO-8859-1
\Problem name: 

Minimize
 obj: 2 y_0_1 + 6 y_0_2 + 7 y_0_3 + 12 y_0_4 + 6 y_0_5 + 3 y_0_6 + 12 y_0_7
      + 3 y_0_8 + 6 y_0_9 + 2 y_1_0 + 4 y_1_2 + 7 y_1_3 + 10 y_1_4 + 6 y_1_5
      + 3 y_1_6 + 10 y_1_7 + y_1_8 + 4 y_1_9 + 6 y_2_0 + 4 y_2_1 + 7 y_2_3
      + 6 y_2_4 + 6 y_2_5 + 3 y_2_6 + 6 y_2_7 + 3 y_2_8 + 4 y_2_9 + 7 y_3_0
      + 7 y_3_1 + 7 y_3_2 + 9 y_3_4 + 3 y_3_5 + 4 y_3_6 + 9 y_3_7 + 6 y_3_8
      + 3 y_3_9 + 12 y_4_0 + 10 y_4_1 + 6 y_4_2 + 9 y_4_3 + 6 y_4_5 + 9 y_4_6
      + 2 y_4_7 + 9 y_4_8 + 6 y_4_9 + 6 y_5_0 + 6 y_5_1 + 6 y_5_2 + 3 y_5_3
      + 6 y_5_4 + 3 y_5_6 + 6 y_5_7 + 5 y_5_8 + 2 y_5_9 + 3 y_6_0 + 3 y_6_1
      + 3 y_6_2 + 4 y_6_3 + 9 y_6_4 + 3 y_6_5 + 9 y_6_7 + 2 y_6_8 + 3 y_6_9
      + 12 y_7_0 + 10 y_7_1 + 6 y_7_2 + 9 y_7_3 + 2 y_7_4 + 6 y_7_5 + 9 y_7_6
      + 9 y_7_8 + 6 y_7_9 + 3 y_8_0 + y_8_1 + 3 y_8_2 + 6 y_8_3 + 9 y_8_4
      + 5 y_8_5 + 2 y_8_6 + 9 y_8_7 + 3 y_8_9 + 6 y_9_0 + 4 y_9_1 + 4 y_9_2
      + 3 y_9_3 + 6 y_9_4 + 2 y_9_5 + 3 y_9_6 + 6 y_9_7 + 3 y_9_8
Subject To
 c1:   y_0_0 + y_1_0 + y_2_0 + y_3_0 + y_4_0 + y_5_0 + y_6_0 + y_7_0 + y_8_0
       + y_9_0  = 1
 c2:   y_0_1 + y_1_1 + y_2_1 + y_3_1 + y_4_1 + y_5_1 + y_6_1 + y_7_1 + y_8_1
       + y_9_1  = 1
 c3:   y_0_2 + y_1_2 + y_2_2 + y_3_2 + y_4_2 + y_5_2 + y_6_2 + y_7_2 + y_8_2
       + y_9_2  = 1
 c4:   y_0_3 + y_1_3 + y_2_3 + y_3_3 + y_4_3 + y_5_3 + y_6_3 + y_7_3 + y_8_3
       + y_9_3  = 1
 c5:   y_0_4 + y_1_4 + y_2_4 + y_3_4 + y_4_4 + y_5_4 + y_6_4 + y_7_4 + y_8_4
       + y_9_4  = 1
 c6:   y_0_5 + y_1_5 + y_2_5 + y_3_5 + y_4_5 + y_5_5 + y_6_5 + y_7_5 + y_8_5
       + y_9_5  = 1
 c7:   y_0_6 + y_1_6 + y_2_6 + y_3_6 + y_4_6 + y_5_6 + y_6_6 + y_7_6 + y_8_6
       + y_9_6  = 1
 c8:   y_0_7 + y_1_7 + y_2_7 + y_3_7 + y_4_7 + y_5_7 + y_6_7 + y_7_7 + y_8_7
       + y_9_7  = 1
 c9:   y_0_8 + y_1_8 + y_2_8 + y_3_8 + y_4_8 + y_5_8 + y_6_8 + y_7_8 + y_8_8
       + y_9_8  = 1
 c10:  y_0_9 + y_1_9 + y_2_9 + y_3_9 + y_4_9 + y_5_9 + y_6_9 + y_7_9 + y_8_9
       + y_9_9  = 1
 c11:  y_0_0 + y_0_1 + y_0_2 + y_0_3 + y_0_4 + y_0_5 + y_0_6 + y_0_7 + y_0_8
       + y_0_9  = 1
 c12:  y_1_0 + y_1_1 + y_1_2 + y_1_3 + y_1_4 + y_1_5 + y_1_6 + y_1_7 + y_1_8
       + y_1_9  = 1
 c13:  y_2_0 + y_2_1 + y_2_2 + y_2_3 + y_2_4 + y_2_5 + y_2_6 + y_2_7 + y_2_8
       + y_2_9  = 1
 c14:  y_3_0 + y_3_1 + y_3_2 + y_3_3 + y_3_4 + y_3_5 + y_3_6 + y_3_7 + y_3_8
       + y_3_9  = 1
 c15:  y_4_0 + y_4_1 + y_4_2 + y_4_3 + y_4_4 + y_4_5 + y_4_6 + y_4_7 + y_4_8
       + y_4_9  = 1
 c16:  y_5_0 + y_5_1 + y_5_2 + y_5_3 + y_5_4 + y_5_5 + y_5_6 + y_5_7 + y_5_8
       + y_5_9  = 1
 c17:  y_6_0 + y_6_1 + y_6_2 + y_6_3 + y_6_4 + y_6_5 + y_6_6 + y_6_7 + y_6_8
       + y_6_9  = 1
 c18:  y_7_0 + y_7_1 + y_7_2 + y_7_3 + y_7_4 + y_7_5 + y_7_6 + y_7_7 + y_7_8
       + y_7_9  = 1
 c19:  y_8_0 + y_8_1 + y_8_2 + y_8_3 + y_8_4 + y_8_5 + y_8_6 + y_8_7 + y_8_8
       + y_8_9  = 1
 c20:  y_9_0 + y_9_1 + y_9_2 + y_9_3 + y_9_4 + y_9_5 + y_9_6 + y_9_7 + y_9_8
       + y_9_9  = 1
 c21:  x_0_1 - 9 y_0_1 <= 0
 c22:  x_0_2 - 9 y_0_2 <= 0
 c23:  x_0_3 - 9 y_0_3 <= 0
 c24:  x_0_4 - 9 y_0_4 <= 0
 c25:  x_0_5 - 9 y_0_5 <= 0
 c26:  x_0_6 - 9 y_0_6 <= 0
 c27:  x_0_7 - 9 y_0_7 <= 0
 c28:  x_0_8 - 9 y_0_8 <= 0
 c29:  x_0_9 - 9 y_0_9 <= 0
 c30:  x_1_1 - 9 y_1_1 <= 0
 c31:  x_1_2 - 9 y_1_2 <= 0
 c32:  x_1_3 - 9 y_1_3 <= 0
 c33:  x_1_4 - 9 y_1_4 <= 0
 c34:  x_1_5 - 9 y_1_5 <= 0
 c35:  x_1_6 - 9 y_1_6 <= 0
 c36:  x_1_7 - 9 y_1_7 <= 0
 c37:  x_1_8 - 9 y_1_8 <= 0
 c38:  x_1_9 - 9 y_1_9 <= 0
 c39:  x_2_1 - 9 y_2_1 <= 0
 c40:  x_2_2 - 9 y_2_2 <= 0
 c41:  x_2_3 - 9 y_2_3 <= 0
 c42:  x_2_4 - 9 y_2_4 <= 0
 c43:  x_2_5 - 9 y_2_5 <= 0
 c44:  x_2_6 - 9 y_2_6 <= 0
 c45:  x_2_7 - 9 y_2_7 <= 0
 c46:  x_2_8 - 9 y_2_8 <= 0
 c47:  x_2_9 - 9 y_2_9 <= 0
 c48:  x_3_1 - 9 y_3_1 <= 0
 c49:  x_3_2 - 9 y_3_2 <= 0
 c50:  x_3_3 - 9 y_3_3 <= 0
 c51:  x_3_4 - 9 y_3_4 <= 0
 c52:  x_3_5 - 9 y_3_5 <= 0
 c53:  x_3_6 - 9 y_3_6 <= 0
 c54:  x_3_7 - 9 y_3_7 <= 0
 c55:  x_3_8 - 9 y_3_8 <= 0
 c56:  x_3_9 - 9 y_3_9 <= 0
 c57:  x_4_1 - 9 y_4_1 <= 0
 c58:  x_4_2 - 9 y_4_2 <= 0
 c59:  x_4_3 - 9 y_4_3 <= 0
 c60:  x_4_4 - 9 y_4_4 <= 0
 c61:  x_4_5 - 9 y_4_5 <= 0
 c62:  x_4_6 - 9 y_4_6 <= 0
 c63:  x_4_7 - 9 y_4_7 <= 0
 c64:  x_4_8 - 9 y_4_8 <= 0
 c65:  x_4_9 - 9 y_4_9 <= 0
 c66:  x_5_1 - 9 y_5_1 <= 0
 c67:  x_5_2 - 9 y_5_2 <= 0
 c68:  x_5_3 - 9 y_5_3 <= 0
 c69:  x_5_4 - 9 y_5_4 <= 0
 c70:  x_5_5 - 9 y_5_5 <= 0
 c71:  x_5_6 - 9 y_5_6 <= 0
 c72:  x_5_7 - 9 y_5_7 <= 0
 c73:  x_5_8 - 9 y_5_8 <= 0
 c74:  x_5_9 - 9 y_5_9 <= 0
 c75:  x_6_1 - 9 y_6_1 <= 0
 c76:  x_6_2 - 9 y_6_2 <= 0
 c77:  x_6_3 - 9 y_6_3 <= 0
 c78:  x_6_4 - 9 y_6_4 <= 0
 c79:  x_6_5 - 9 y_6_5 <= 0
 c80:  x_6_6 - 9 y_6_6 <= 0
 c81:  x_6_7 - 9 y_6_7 <= 0
 c82:  x_6_8 - 9 y_6_8 <= 0
 c83:  x_6_9 - 9 y_6_9 <= 0
 c84:  x_7_1 - 9 y_7_1 <= 0
 c85:  x_7_2 - 9 y_7_2 <= 0
 c86:  x_7_3 - 9 y_7_3 <= 0
 c87:  x_7_4 - 9 y_7_4 <= 0
 c88:  x_7_5 - 9 y_7_5 <= 0
 c89:  x_7_6 - 9 y_7_6 <= 0
 c90:  x_7_7 - 9 y_7_7 <= 0
 c91:  x_7_8 - 9 y_7_8 <= 0
 c92:  x_7_9 - 9 y_7_9 <= 0
 c93:  x_8_1 - 9 y_8_1 <= 0
 c94:  x_8_2 - 9 y_8_2 <= 0
 c95:  x_8_3 - 9 y_8_3 <= 0
 c96:  x_8_4 - 9 y_8_4 <= 0
 c97:  x_8_5 - 9 y_8_5 <= 0
 c98:  x_8_6 - 9 y_8_6 <= 0
 c99:  x_8_7 - 9 y_8_7 <= 0
 c100: x_8_8 - 9 y_8_8 <= 0
 c101: x_8_9 - 9 y_8_9 <= 0
 c102: x_9_1 - 9 y_9_1 <= 0
 c103: x_9_2 - 9 y_9_2 <= 0
 c104: x_9_3 - 9 y_9_3 <= 0
 c105: x_9_4 - 9 y_9_4 <= 0
 c106: x_9_5 - 9 y_9_5 <= 0
 c107: x_9_6 - 9 y_9_6 <= 0
 c108: x_9_7 - 9 y_9_7 <= 0
 c109: x_9_8 - 9 y_9_8 <= 0
 c110: x_9_9 - 9 y_9_9 <= 0
 c111: x_0_1 - x_1_1 - x_1_2 - x_1_3 - x_1_4 - x_1_5 - x_1_6 - x_1_7 - x_1_8
       - x_1_9 - x_2_1 + x_3_1 + x_4_1 + x_5_1 + x_6_1 + x_7_1 + x_8_1 + x_9_1
        = 1
 c112: x_0_2 + x_1_2 - x_2_1 - x_2_2 - x_2_3 - x_2_4 - x_2_5 - x_2_6 - x_2_7
       - x_2_8 - x_2_9 - x_3_1 + x_3_2 + x_4_2 + x_5_2 + x_6_2 + x_7_2 + x_8_2
       + x_9_2  = 1
 c113: x_0_3 + x_1_3 + x_2_3 - x_3_1 - x_3_2 - x_3_3 - x_3_4 - x_3_5 - x_3_6
       - x_3_7 - x_3_8 - x_3_9 - x_4_1 + x_4_3 + x_5_3 + x_6_3 + x_7_3 + x_8_3
       + x_9_3  = 1
 c114: x_0_4 + x_1_4 + x_2_4 + x_3_4 - x_4_1 - x_4_2 - x_4_3 - x_4_4 - x_4_5
       - x_4_6 - x_4_7 - x_4_8 - x_4_9 - x_5_1 + x_5_4 + x_6_4 + x_7_4 + x_8_4
       + x_9_4  = 1
 c115: x_0_5 + x_1_5 + x_2_5 + x_3_5 + x_4_5 - x_5_1 - x_5_2 - x_5_3 - x_5_4
       - x_5_5 - x_5_6 - x_5_7 - x_5_8 - x_5_9 - x_6_1 + x_6_5 + x_7_5 + x_8_5
       + x_9_5  = 1
 c116: x_0_6 + x_1_6 + x_2_6 + x_3_6 + x_4_6 + x_5_6 - x_6_1 - x_6_2 - x_6_3
       - x_6_4 - x_6_5 - x_6_6 - x_6_7 - x_6_8 - x_6_9 - x_7_1 + x_7_6 + x_8_6
       + x_9_6  = 1
 c117: x_0_7 + x_1_7 + x_2_7 + x_3_7 + x_4_7 + x_5_7 + x_6_7 - x_7_1 - x_7_2
       - x_7_3 - x_7_4 - x_7_5 - x_7_6 - x_7_7 - x_7_8 - x_7_9 - x_8_1 + x_8_7
       + x_9_7  = 1
 c118: x_0_8 + x_1_8 + x_2_8 + x_3_8 + x_4_8 + x_5_8 + x_6_8 + x_7_8 - x_8_1
       - x_8_2 - x_8_3 - x_8_4 - x_8_5 - x_8_6 - x_8_7 - x_8_8 - x_8_9 - x_9_1
       + x_9_8  = 1
 c119: x_0_9 + x_1_9 + x_2_9 + x_3_9 + x_4_9 + x_5_9 + x_6_9 + x_7_9 + x_8_9
       - x_9_1 - x_9_2 - x_9_3 - x_9_4 - x_9_5 - x_9_6 - x_9_7 - x_9_8 - x_9_9
       - y_0_0  = 1
Bounds
      x_0_1 >= 0
      x_0_2 >= 0
      x_0_3 >= 0
      x_0_4 >= 0
      x_0_5 >= 0
      x_0_6 >= 0
      x_0_7 >= 0
      x_0_8 >= 0
      x_0_9 >= 0
      x_1_1 >= 0
      x_1_2 >= 0
      x_1_3 >= 0
      x_1_4 >= 0
      x_1_5 >= 0
      x_1_6 >= 0
      x_1_7 >= 0
      x_1_8 >= 0
      x_1_9 >= 0
      x_2_1 >= 0
      x_2_2 >= 0
      x_2_3 >= 0
      x_2_4 >= 0
      x_2_5 >= 0
      x_2_6 >= 0
      x_2_7 >= 0
      x_2_8 >= 0
      x_2_9 >= 0
      x_3_1 >= 0
      x_3_2 >= 0
      x_3_3 >= 0
      x_3_4 >= 0
      x_3_5 >= 0
      x_3_6 >= 0
      x_3_7 >= 0
      x_3_8 >= 0
      x_3_9 >= 0
      x_4_1 >= 0
      x_4_2 >= 0
      x_4_3 >= 0
      x_4_4 >= 0
      x_4_5 >= 0
      x_4_6 >= 0
      x_4_7 >= 0
      x_4_8 >= 0
      x_4_9 >= 0
      x_5_1 >= 0
      x_5_2 >= 0
      x_5_3 >= 0
      x_5_4 >= 0
      x_5_5 >= 0
      x_5_6 >= 0
      x_5_7 >= 0
      x_5_8 >= 0
      x_5_9 >= 0
      x_6_1 >= 0
      x_6_2 >= 0
      x_6_3 >= 0
      x_6_4 >= 0
      x_6_5 >= 0
      x_6_6 >= 0
      x_6_7 >= 0
      x_6_8 >= 0
      x_6_9 >= 0
      x_7_1 >= 0
      x_7_2 >= 0
      x_7_3 >= 0
      x_7_4 >= 0
      x_7_5 >= 0
      x_7_6 >= 0
      x_7_7 >= 0
      x_7_8 >= 0
      x_7_9 >= 0
      x_8_1 >= 0
      x_8_2 >= 0
      x_8_3 >= 0
      x_8_4 >= 0
      x_8_5 >= 0
      x_8_6 >= 0
      x_8_7 >= 0
      x_8_8 >= 0
      x_8_9 >= 0
      x_9_1 >= 0
      x_9_2 >= 0
      x_9_3 >= 0
      x_9_4 >= 0
      x_9_5 >= 0
      x_9_6 >= 0
      x_9_7 >= 0
      x_9_8 >= 0
      x_9_9 >= 0
 0 <= y_0_0 <= 1
 0 <= y_0_1 <= 1
 0 <= y_0_2 <= 1
 0 <= y_0_3 <= 1
 0 <= y_0_4 <= 1
 0 <= y_0_5 <= 1
 0 <= y_0_6 <= 1
 0 <= y_0_7 <= 1
 0 <= y_0_8 <= 1
 0 <= y_0_9 <= 1
 0 <= y_1_0 <= 1
 0 <= y_1_1 <= 1
 0 <= y_1_2 <= 1
 0 <= y_1_3 <= 1
 0 <= y_1_4 <= 1
 0 <= y_1_5 <= 1
 0 <= y_1_6 <= 1
 0 <= y_1_7 <= 1
 0 <= y_1_8 <= 1
 0 <= y_1_9 <= 1
 0 <= y_2_0 <= 1
 0 <= y_2_1 <= 1
 0 <= y_2_2 <= 1
 0 <= y_2_3 <= 1
 0 <= y_2_4 <= 1
 0 <= y_2_5 <= 1
 0 <= y_2_6 <= 1
 0 <= y_2_7 <= 1
 0 <= y_2_8 <= 1
 0 <= y_2_9 <= 1
 0 <= y_3_0 <= 1
 0 <= y_3_1 <= 1
 0 <= y_3_2 <= 1
 0 <= y_3_3 <= 1
 0 <= y_3_4 <= 1
 0 <= y_3_5 <= 1
 0 <= y_3_6 <= 1
 0 <= y_3_7 <= 1
 0 <= y_3_8 <= 1
 0 <= y_3_9 <= 1
 0 <= y_4_0 <= 1
 0 <= y_4_1 <= 1
 0 <= y_4_2 <= 1
 0 <= y_4_3 <= 1
 0 <= y_4_4 <= 1
 0 <= y_4_5 <= 1
 0 <= y_4_6 <= 1
 0 <= y_4_7 <= 1
 0 <= y_4_8 <= 1
 0 <= y_4_9 <= 1
 0 <= y_5_0 <= 1
 0 <= y_5_1 <= 1
 0 <= y_5_2 <= 1
 0 <= y_5_3 <= 1
 0 <= y_5_4 <= 1
 0 <= y_5_5 <= 1
 0 <= y_5_6 <= 1
 0 <= y_5_7 <= 1
 0 <= y_5_8 <= 1
 0 <= y_5_9 <= 1
 0 <= y_6_0 <= 1
 0 <= y_6_1 <= 1
 0 <= y_6_2 <= 1
 0 <= y_6_3 <= 1
 0 <= y_6_4 <= 1
 0 <= y_6_5 <= 1
 0 <= y_6_6 <= 1
 0 <= y_6_7 <= 1
 0 <= y_6_8 <= 1
 0 <= y_6_9 <= 1
 0 <= y_7_0 <= 1
 0 <= y_7_1 <= 1
 0 <= y_7_2 <= 1
 0 <= y_7_3 <= 1
 0 <= y_7_4 <= 1
 0 <= y_7_5 <= 1
 0 <= y_7_6 <= 1
 0 <= y_7_7 <= 1
 0 <= y_7_8 <= 1
 0 <= y_7_9 <= 1
 0 <= y_8_0 <= 1
 0 <= y_8_1 <= 1
 0 <= y_8_2 <= 1
 0 <= y_8_3 <= 1
 0 <= y_8_4 <= 1
 0 <= y_8_5 <= 1
 0 <= y_8_6 <= 1
 0 <= y_8_7 <= 1
 0 <= y_8_8 <= 1
 0 <= y_8_9 <= 1
 0 <= y_9_0 <= 1
 0 <= y_9_1 <= 1
 0 <= y_9_2 <= 1
 0 <= y_9_3 <= 1
 0 <= y_9_4 <= 1
 0 <= y_9_5 <= 1
 0 <= y_9_6 <= 1
 0 <= y_9_7 <= 1
 0 <= y_9_8 <= 1
 0 <= y_9_9 <= 1
Binaries
 y_0_0  y_0_1  y_0_2  y_0_3  y_0_4  y_0_5  y_0_6  y_0_7  y_0_8  y_0_9  y_1_0 
 y_1_1  y_1_2  y_1_3  y_1_4  y_1_5  y_1_6  y_1_7  y_1_8  y_1_9  y_2_0  y_2_1 
 y_2_2  y_2_3  y_2_4  y_2_5  y_2_6  y_2_7  y_2_8  y_2_9  y_3_0  y_3_1  y_3_2 
 y_3_3  y_3_4  y_3_5  y_3_6  y_3_7  y_3_8  y_3_9  y_4_0  y_4_1  y_4_2  y_4_3 
 y_4_4  y_4_5  y_4_6  y_4_7  y_4_8  y_4_9  y_5_0  y_5_1  y_5_2  y_5_3  y_5_4 
 y_5_5  y_5_6  y_5_7  y_5_8  y_5_9  y_6_0  y_6_1  y_6_2  y_6_3  y_6_4  y_6_5 
 y_6_6  y_6_7  y_6_8  y_6_9  y_7_0  y_7_1  y_7_2  y_7_3  y_7_4  y_7_5  y_7_6 
 y_7_7  y_7_8  y_7_9  y_8_0  y_8_1  y_8_2  y_8_3  y_8_4  y_8_5  y_8_6  y_8_7 
 y_8_8  y_8_9  y_9_0  y_9_1  y_9_2  y_9_3  y_9_4  y_9_5  y_9_6  y_9_7  y_9_8 
 y_9_9 
Generals
 x_0_1  x_0_2  x_0_3  x_0_4  x_0_5  x_0_6  x_0_7  x_0_8  x_0_9  x_1_1  x_1_2 
 x_1_3  x_1_4  x_1_5  x_1_6  x_1_7  x_1_8  x_1_9  x_2_1  x_2_2  x_2_3  x_2_4 
 x_2_5  x_2_6  x_2_7  x_2_8  x_2_9  x_3_1  x_3_2  x_3_3  x_3_4  x_3_5  x_3_6 
 x_3_7  x_3_8  x_3_9  x_4_1  x_4_2  x_4_3  x_4_4  x_4_5  x_4_6  x_4_7  x_4_8 
 x_4_9  x_5_1  x_5_2  x_5_3  x_5_4  x_5_5  x_5_6  x_5_7  x_5_8  x_5_9  x_6_1 
 x_6_2  x_6_3  x_6_4  x_6_5  x_6_6  x_6_7  x_6_8  x_6_9  x_7_1  x_7_2  x_7_3 
 x_7_4  x_7_5  x_7_6  x_7_7  x_7_8  x_7_9  x_8_1  x_8_2  x_8_3  x_8_4  x_8_5 
 x_8_6  x_8_7  x_8_8  x_8_9  x_9_1  x_9_2  x_9_3  x_9_4  x_9_5  x_9_6  x_9_7 
 x_9_8  x_9_9 
End
